72 66920
45 5 51 15 69 72 3 56 54 24 41 58 19 20 6 43 50 53 34 36 68 66 16 61 65 9 39 11 57 37 25 4 13 62 63 17 40 71 42 48 55 49 46 59 30 29 44 52 1 7 38 33 28 27 2 26 47 32 23 10 22 70 8 12 64 21 31 14 60 35 67 18 
